(set-info :smt-lib-version 2.6)
(set-info :source |Patrice Godefroid, SAGE (systematic dynamic test generation). For more information: http://research.microsoft.com/en-us/um/people/pg/public_psfiles/ndss2008.pdf|)
(set-info :category "industrial")
(set-info :status sat)
(set-logic QF_BV)
(declare-fun |T1@8722|  () (_ BitVec 8))
(declare-fun |T1@8721|  () (_ BitVec 8))
(declare-fun |T1@8720|  () (_ BitVec 8))
(declare-fun |T1@8719|  () (_ BitVec 8))
(declare-fun |T1@8718|  () (_ BitVec 8))
(declare-fun |T1@8717|  () (_ BitVec 8))
(declare-fun |T1@8716|  () (_ BitVec 8))
(declare-fun |T1@8715|  () (_ BitVec 8))
(declare-fun |T1@8714|  () (_ BitVec 8))
(declare-fun |T1@8713|  () (_ BitVec 8))
(declare-fun |T1@8712|  () (_ BitVec 8))
(declare-fun |T1@8711|  () (_ BitVec 8))
(declare-fun |T1@8710|  () (_ BitVec 8))
(declare-fun |T1@8709|  () (_ BitVec 8))
(declare-fun |T1@8708|  () (_ BitVec 8))
(declare-fun |T1@8707|  () (_ BitVec 8))
(declare-fun |T1@8706|  () (_ BitVec 8))
(declare-fun |T1@8705|  () (_ BitVec 8))
(declare-fun |T1@8704|  () (_ BitVec 8))
(assert
(let ((?x4 ((_ zero_extend 24) |T1@8722|)))
(let ((?x7 ((_ zero_extend 24) |T1@8721|)))
(let ((?x9 ((_ zero_extend 24) |T1@8720|)))
(let ((?x11 ((_ zero_extend 24) |T1@8719|)))
(let ((?x13 ((_ zero_extend 24) |T1@8718|)))
(let ((?x15 ((_ zero_extend 24) |T1@8717|)))
(let ((?x17 ((_ zero_extend 24) |T1@8716|)))
(let ((?x19 ((_ zero_extend 24) |T1@8715|)))
(let ((?x21 ((_ zero_extend 24) |T1@8714|)))
(let ((?x23 ((_ zero_extend 24) |T1@8713|)))
(let ((?x25 ((_ zero_extend 24) |T1@8712|)))
(let ((?x27 ((_ zero_extend 24) |T1@8711|)))
(let ((?x29 ((_ zero_extend 24) |T1@8710|)))
(let ((?x31 ((_ zero_extend 24) |T1@8709|)))
(let ((?x33 ((_ zero_extend 24) |T1@8708|)))
(let ((?x35 ((_ zero_extend 24) |T1@8707|)))
(let ((?x37 ((_ zero_extend 24) |T1@8706|)))
(let ((?x39 ((_ zero_extend 24) |T1@8705|)))
(let ((?x41 ((_ zero_extend 24) |T1@8704|)))
(let ((?x42 (bvmul ?x41 (_ bv65599 32))))
(let ((?x43 (bvadd ?x42 ?x39)))
(let ((?x44 (bvmul ?x43 (_ bv65599 32))))
(let ((?x45 (bvadd ?x44 ?x37)))
(let ((?x46 (bvmul ?x45 (_ bv65599 32))))
(let ((?x47 (bvadd ?x46 ?x35)))
(let ((?x48 (bvmul ?x47 (_ bv65599 32))))
(let ((?x49 (bvadd ?x48 ?x33)))
(let ((?x50 (bvmul ?x49 (_ bv65599 32))))
(let ((?x51 (bvadd ?x50 ?x31)))
(let ((?x52 (bvmul ?x51 (_ bv65599 32))))
(let ((?x53 (bvadd ?x52 ?x29)))
(let ((?x54 (bvmul ?x53 (_ bv65599 32))))
(let ((?x55 (bvadd ?x54 ?x27)))
(let ((?x56 (bvmul ?x55 (_ bv65599 32))))
(let ((?x57 (bvadd ?x56 ?x25)))
(let ((?x58 (bvmul ?x57 (_ bv65599 32))))
(let ((?x59 (bvadd ?x58 ?x23)))
(let ((?x60 (bvmul ?x59 (_ bv65599 32))))
(let ((?x61 (bvadd ?x60 ?x21)))
(let ((?x62 (bvmul ?x61 (_ bv65599 32))))
(let ((?x63 (bvadd ?x62 ?x19)))
(let ((?x64 (bvmul ?x63 (_ bv65599 32))))
(let ((?x65 (bvadd ?x64 ?x17)))
(let ((?x66 (bvmul ?x65 (_ bv65599 32))))
(let ((?x67 (bvadd ?x66 ?x15)))
(let ((?x68 (bvmul ?x67 (_ bv65599 32))))
(let ((?x69 (bvadd ?x68 ?x13)))
(let ((?x70 (bvmul ?x69 (_ bv65599 32))))
(let ((?x71 (bvadd ?x70 ?x11)))
(let ((?x72 (bvmul ?x71 (_ bv65599 32))))
(let ((?x73 (bvadd ?x72 ?x9)))
(let ((?x74 (bvmul ?x73 (_ bv65599 32))))
(let ((?x75 (bvadd ?x74 ?x7)))
(let ((?x76 (bvmul ?x75 (_ bv65599 32))))
(let ((?x77 (bvadd ?x76 ?x4)))
(= (_ bv1139301458 32) ?x77)))))))))))))))))))))))))))))))))))))))))))))))))))))))))
(assert
(let ((?x635 (bvmul (_ bv4294967295 32) (_ bv47 32))))
(let ((?x41 ((_ zero_extend 24) |T1@8704|)))
(let ((?x636 (bvadd ?x41 ?x635)))
(let (($x637 (= ?x636 (_ bv0 32))))
(not $x637))))))
(assert
(let ((?x646 (bvmul (_ bv4294967295 32) (_ bv46 32))))
(let ((?x41 ((_ zero_extend 24) |T1@8704|)))
(let ((?x647 (bvadd ?x41 ?x646)))
(let (($x648 (= ?x647 (_ bv0 32))))
(not $x648))))))
(assert
(let ((?x41 ((_ zero_extend 24) |T1@8704|)))
(bvult ?x41 (_ bv97 32))))
(assert
(let ((?x41 ((_ zero_extend 24) |T1@8704|)))
(let (($x663 (= ?x41 (_ bv58 32))))
(not $x663))))
(assert
(let ((?x41 ((_ zero_extend 24) |T1@8704|)))
(let (($x670 (= ?x41 (_ bv46 32))))
(not $x670))))
(assert
(let ((?x678 ((_ zero_extend 8) |T1@8704|)))
(let (($x679 (= ?x678 (_ bv46 16))))
(not $x679))))
(assert
(let ((?x678 ((_ zero_extend 8) |T1@8704|)))
(let (($x686 (= ?x678 (_ bv0 16))))
(not $x686))))
(assert
(let ((?x41 ((_ zero_extend 24) |T1@8704|)))
(let (($x692 (= ?x41 (_ bv47 32))))
(not $x692))))
(assert
(let ((?x41 ((_ zero_extend 24) |T1@8704|)))
(let (($x700 (= ?x41 (_ bv92 32))))
(not $x700))))
(assert
(let ((?x678 ((_ zero_extend 8) |T1@8704|)))
(let (($x708 (= ?x678 (_ bv92 16))))
(not $x708))))
(assert
(let (($x712 (= |T1@8704| (_ bv0 8))))
(not $x712)))
(assert
(let ((?x39 ((_ zero_extend 24) |T1@8705|)))
(bvult ?x39 (_ bv97 32))))
(assert
(let ((?x39 ((_ zero_extend 24) |T1@8705|)))
(let (($x718 (= ?x39 (_ bv58 32))))
(not $x718))))
(assert
(let ((?x39 ((_ zero_extend 24) |T1@8705|)))
(let (($x724 (= ?x39 (_ bv47 32))))
(not $x724))))
(assert
(let ((?x39 ((_ zero_extend 24) |T1@8705|)))
(let (($x730 (= ?x39 (_ bv92 32))))
(not $x730))))
(assert
(let ((?x39 ((_ zero_extend 24) |T1@8705|)))
(let (($x736 (= ?x39 (_ bv46 32))))
(not $x736))))
(assert
(let ((?x743 ((_ zero_extend 8) |T1@8705|)))
(let (($x744 (= ?x743 (_ bv58 16))))
(not $x744))))
(assert
(let (($x749 (= |T1@8705| (_ bv0 8))))
(not $x749)))
(assert
(let ((?x37 ((_ zero_extend 24) |T1@8706|)))
(bvult ?x37 (_ bv97 32))))
(assert
(let ((?x37 ((_ zero_extend 24) |T1@8706|)))
(let (($x757 (= ?x37 (_ bv58 32))))
(not $x757))))
(assert
(let ((?x37 ((_ zero_extend 24) |T1@8706|)))
(let (($x763 (= ?x37 (_ bv47 32))))
(not $x763))))
(assert
(let ((?x37 ((_ zero_extend 24) |T1@8706|)))
(let (($x769 (= ?x37 (_ bv92 32))))
(not $x769))))
(assert
(let ((?x37 ((_ zero_extend 24) |T1@8706|)))
(let (($x775 (= ?x37 (_ bv46 32))))
(not $x775))))
(assert
(let (($x781 (= |T1@8706| (_ bv0 8))))
(not $x781)))
(assert
(let ((?x35 ((_ zero_extend 24) |T1@8707|)))
(bvult ?x35 (_ bv97 32))))
(assert
(let ((?x35 ((_ zero_extend 24) |T1@8707|)))
(let (($x789 (= ?x35 (_ bv58 32))))
(not $x789))))
(assert
(let ((?x35 ((_ zero_extend 24) |T1@8707|)))
(let (($x795 (= ?x35 (_ bv47 32))))
(not $x795))))
(assert
(let ((?x35 ((_ zero_extend 24) |T1@8707|)))
(let (($x801 (= ?x35 (_ bv92 32))))
(not $x801))))
(assert
(let ((?x35 ((_ zero_extend 24) |T1@8707|)))
(let (($x807 (= ?x35 (_ bv46 32))))
(not $x807))))
(assert
(let (($x813 (= |T1@8707| (_ bv0 8))))
(not $x813)))
(assert
(let ((?x33 ((_ zero_extend 24) |T1@8708|)))
(bvult ?x33 (_ bv97 32))))
(assert
(let ((?x33 ((_ zero_extend 24) |T1@8708|)))
(let (($x821 (= ?x33 (_ bv58 32))))
(not $x821))))
(assert
(let ((?x33 ((_ zero_extend 24) |T1@8708|)))
(let (($x827 (= ?x33 (_ bv47 32))))
(not $x827))))
(assert
(let ((?x33 ((_ zero_extend 24) |T1@8708|)))
(let (($x833 (= ?x33 (_ bv92 32))))
(not $x833))))
(assert
(let ((?x33 ((_ zero_extend 24) |T1@8708|)))
(let (($x839 (= ?x33 (_ bv46 32))))
(not $x839))))
(assert
(let (($x845 (= |T1@8708| (_ bv0 8))))
(not $x845)))
(assert
(let ((?x31 ((_ zero_extend 24) |T1@8709|)))
(bvult ?x31 (_ bv97 32))))
(assert
(let ((?x31 ((_ zero_extend 24) |T1@8709|)))
(let (($x853 (= ?x31 (_ bv58 32))))
(not $x853))))
(assert
(let ((?x31 ((_ zero_extend 24) |T1@8709|)))
(let (($x859 (= ?x31 (_ bv47 32))))
(not $x859))))
(assert
(let ((?x31 ((_ zero_extend 24) |T1@8709|)))
(let (($x865 (= ?x31 (_ bv92 32))))
(not $x865))))
(assert
(let ((?x31 ((_ zero_extend 24) |T1@8709|)))
(let (($x871 (= ?x31 (_ bv46 32))))
(not $x871))))
(assert
(let (($x877 (= |T1@8709| (_ bv0 8))))
(not $x877)))
(assert
(let ((?x29 ((_ zero_extend 24) |T1@8710|)))
(bvult ?x29 (_ bv97 32))))
(assert
(let ((?x29 ((_ zero_extend 24) |T1@8710|)))
(let (($x885 (= ?x29 (_ bv58 32))))
(not $x885))))
(assert
(let ((?x29 ((_ zero_extend 24) |T1@8710|)))
(let (($x891 (= ?x29 (_ bv47 32))))
(not $x891))))
(assert
(let ((?x29 ((_ zero_extend 24) |T1@8710|)))
(let (($x897 (= ?x29 (_ bv92 32))))
(not $x897))))
(assert
(let ((?x29 ((_ zero_extend 24) |T1@8710|)))
(let (($x903 (= ?x29 (_ bv46 32))))
(not $x903))))
(assert
(let (($x909 (= |T1@8710| (_ bv0 8))))
(not $x909)))
(assert
(let ((?x27 ((_ zero_extend 24) |T1@8711|)))
(bvult ?x27 (_ bv97 32))))
(assert
(let ((?x27 ((_ zero_extend 24) |T1@8711|)))
(let (($x917 (= ?x27 (_ bv58 32))))
(not $x917))))
(assert
(let ((?x27 ((_ zero_extend 24) |T1@8711|)))
(let (($x923 (= ?x27 (_ bv47 32))))
(not $x923))))
(assert
(let ((?x27 ((_ zero_extend 24) |T1@8711|)))
(let (($x929 (= ?x27 (_ bv92 32))))
(not $x929))))
(assert
(let ((?x27 ((_ zero_extend 24) |T1@8711|)))
(let (($x935 (= ?x27 (_ bv46 32))))
(not $x935))))
(assert
(let (($x941 (= |T1@8711| (_ bv0 8))))
(not $x941)))
(assert
(let ((?x25 ((_ zero_extend 24) |T1@8712|)))
(bvult ?x25 (_ bv97 32))))
(assert
(let ((?x25 ((_ zero_extend 24) |T1@8712|)))
(let (($x949 (= ?x25 (_ bv58 32))))
(not $x949))))
(assert
(let ((?x25 ((_ zero_extend 24) |T1@8712|)))
(let (($x955 (= ?x25 (_ bv47 32))))
(not $x955))))
(assert
(let ((?x25 ((_ zero_extend 24) |T1@8712|)))
(let (($x961 (= ?x25 (_ bv92 32))))
(not $x961))))
(assert
(let ((?x25 ((_ zero_extend 24) |T1@8712|)))
(let (($x967 (= ?x25 (_ bv46 32))))
(not $x967))))
(assert
(let (($x973 (= |T1@8712| (_ bv0 8))))
(not $x973)))
(assert
(let ((?x23 ((_ zero_extend 24) |T1@8713|)))
(bvult ?x23 (_ bv97 32))))
(assert
(let ((?x23 ((_ zero_extend 24) |T1@8713|)))
(let (($x981 (= ?x23 (_ bv58 32))))
(not $x981))))
(assert
(let ((?x23 ((_ zero_extend 24) |T1@8713|)))
(let (($x987 (= ?x23 (_ bv47 32))))
(not $x987))))
(assert
(let ((?x23 ((_ zero_extend 24) |T1@8713|)))
(let (($x993 (= ?x23 (_ bv92 32))))
(not $x993))))
(assert
(let ((?x23 ((_ zero_extend 24) |T1@8713|)))
(let (($x999 (= ?x23 (_ bv46 32))))
(not $x999))))
(assert
(let (($x1005 (= |T1@8713| (_ bv0 8))))
(not $x1005)))
(assert
(let ((?x21 ((_ zero_extend 24) |T1@8714|)))
(bvult ?x21 (_ bv97 32))))
(assert
(let ((?x21 ((_ zero_extend 24) |T1@8714|)))
(let (($x1013 (= ?x21 (_ bv58 32))))
(not $x1013))))
(assert
(let ((?x21 ((_ zero_extend 24) |T1@8714|)))
(let (($x1019 (= ?x21 (_ bv47 32))))
(not $x1019))))
(assert
(let ((?x21 ((_ zero_extend 24) |T1@8714|)))
(let (($x1025 (= ?x21 (_ bv92 32))))
(not $x1025))))
(assert
(let ((?x21 ((_ zero_extend 24) |T1@8714|)))
(let (($x1031 (= ?x21 (_ bv46 32))))
(not $x1031))))
(assert
(let (($x1037 (= |T1@8714| (_ bv0 8))))
(not $x1037)))
(assert
(let ((?x19 ((_ zero_extend 24) |T1@8715|)))
(bvult ?x19 (_ bv97 32))))
(assert
(let ((?x19 ((_ zero_extend 24) |T1@8715|)))
(let (($x1045 (= ?x19 (_ bv58 32))))
(not $x1045))))
(assert
(let ((?x19 ((_ zero_extend 24) |T1@8715|)))
(let (($x1051 (= ?x19 (_ bv47 32))))
(not $x1051))))
(assert
(let ((?x19 ((_ zero_extend 24) |T1@8715|)))
(let (($x1057 (= ?x19 (_ bv92 32))))
(not $x1057))))
(assert
(let ((?x19 ((_ zero_extend 24) |T1@8715|)))
(let (($x1063 (= ?x19 (_ bv46 32))))
(not $x1063))))
(assert
(let (($x1069 (= |T1@8715| (_ bv0 8))))
(not $x1069)))
(assert
(let ((?x17 ((_ zero_extend 24) |T1@8716|)))
(bvult ?x17 (_ bv97 32))))
(assert
(let ((?x17 ((_ zero_extend 24) |T1@8716|)))
(let (($x1077 (= ?x17 (_ bv58 32))))
(not $x1077))))
(assert
(let ((?x17 ((_ zero_extend 24) |T1@8716|)))
(let (($x1083 (= ?x17 (_ bv47 32))))
(not $x1083))))
(assert
(let ((?x17 ((_ zero_extend 24) |T1@8716|)))
(let (($x1089 (= ?x17 (_ bv92 32))))
(not $x1089))))
(assert
(let ((?x17 ((_ zero_extend 24) |T1@8716|)))
(let (($x1095 (= ?x17 (_ bv46 32))))
(not $x1095))))
(assert
(let (($x1101 (= |T1@8716| (_ bv0 8))))
(not $x1101)))
(assert
(let ((?x15 ((_ zero_extend 24) |T1@8717|)))
(bvult ?x15 (_ bv97 32))))
(assert
(let ((?x15 ((_ zero_extend 24) |T1@8717|)))
(let (($x1109 (= ?x15 (_ bv58 32))))
(not $x1109))))
(assert
(let ((?x15 ((_ zero_extend 24) |T1@8717|)))
(let (($x1115 (= ?x15 (_ bv47 32))))
(not $x1115))))
(assert
(let ((?x15 ((_ zero_extend 24) |T1@8717|)))
(let (($x1121 (= ?x15 (_ bv92 32))))
(not $x1121))))
(assert
(let ((?x15 ((_ zero_extend 24) |T1@8717|)))
(let (($x1127 (= ?x15 (_ bv46 32))))
(not $x1127))))
(assert
(let (($x1133 (= |T1@8717| (_ bv0 8))))
(not $x1133)))
(assert
(let ((?x13 ((_ zero_extend 24) |T1@8718|)))
(bvult ?x13 (_ bv97 32))))
(assert
(let ((?x13 ((_ zero_extend 24) |T1@8718|)))
(let (($x1141 (= ?x13 (_ bv58 32))))
(not $x1141))))
(assert
(let ((?x13 ((_ zero_extend 24) |T1@8718|)))
(let (($x1147 (= ?x13 (_ bv47 32))))
(not $x1147))))
(assert
(let ((?x13 ((_ zero_extend 24) |T1@8718|)))
(let (($x1153 (= ?x13 (_ bv92 32))))
(not $x1153))))
(assert
(let ((?x13 ((_ zero_extend 24) |T1@8718|)))
(let (($x1159 (= ?x13 (_ bv46 32))))
(not $x1159))))
(assert
(let (($x1165 (= |T1@8718| (_ bv0 8))))
(not $x1165)))
(assert
(let ((?x11 ((_ zero_extend 24) |T1@8719|)))
(bvult ?x11 (_ bv97 32))))
(assert
(let ((?x11 ((_ zero_extend 24) |T1@8719|)))
(= ?x11 (_ bv58 32))))
(assert
(let ((?x11 ((_ zero_extend 24) |T1@8719|)))
(let (($x1176 (= ?x11 (_ bv47 32))))
(not $x1176))))
(assert
(let ((?x11 ((_ zero_extend 24) |T1@8719|)))
(let (($x1182 (= ?x11 (_ bv92 32))))
(not $x1182))))
(assert
(let ((?x11 ((_ zero_extend 24) |T1@8719|)))
(let (($x1188 (= ?x11 (_ bv46 32))))
(not $x1188))))
(assert
(let (($x1194 (= |T1@8719| (_ bv0 8))))
(not $x1194)))
(assert
(let ((?x9 ((_ zero_extend 24) |T1@8720|)))
(bvult ?x9 (_ bv97 32))))
(assert
(let ((?x9 ((_ zero_extend 24) |T1@8720|)))
(let (($x1202 (= ?x9 (_ bv58 32))))
(not $x1202))))
(assert
(let ((?x9 ((_ zero_extend 24) |T1@8720|)))
(let (($x1208 (= ?x9 (_ bv47 32))))
(not $x1208))))
(assert
(let ((?x9 ((_ zero_extend 24) |T1@8720|)))
(let (($x1214 (= ?x9 (_ bv92 32))))
(not $x1214))))
(assert
(let ((?x9 ((_ zero_extend 24) |T1@8720|)))
(let (($x1220 (= ?x9 (_ bv46 32))))
(not $x1220))))
(assert
(let (($x1226 (= |T1@8720| (_ bv0 8))))
(not $x1226)))
(assert
(let ((?x7 ((_ zero_extend 24) |T1@8721|)))
(bvult ?x7 (_ bv97 32))))
(assert
(let ((?x7 ((_ zero_extend 24) |T1@8721|)))
(let (($x1234 (= ?x7 (_ bv58 32))))
(not $x1234))))
(assert
(let ((?x7 ((_ zero_extend 24) |T1@8721|)))
(let (($x1240 (= ?x7 (_ bv47 32))))
(not $x1240))))
(assert
(let ((?x7 ((_ zero_extend 24) |T1@8721|)))
(let (($x1246 (= ?x7 (_ bv92 32))))
(not $x1246))))
(assert
(let ((?x7 ((_ zero_extend 24) |T1@8721|)))
(let (($x1252 (= ?x7 (_ bv46 32))))
(not $x1252))))
(assert
(let (($x1258 (= |T1@8721| (_ bv0 8))))
(not $x1258)))
(assert
(let ((?x4 ((_ zero_extend 24) |T1@8722|)))
(bvult ?x4 (_ bv97 32))))
(assert
(let ((?x4 ((_ zero_extend 24) |T1@8722|)))
(let (($x1267 (= ?x4 (_ bv32 32))))
(not $x1267))))
(assert
(let ((?x1274 ((_ zero_extend 8) |T1@8722|)))
(let (($x1275 (= ?x1274 (_ bv92 16))))
(not $x1275))))
(assert
(let ((?x4 ((_ zero_extend 24) |T1@8722|)))
(let (($x1282 (= ?x4 (_ bv58 32))))
(not $x1282))))
(assert
(let ((?x1274 ((_ zero_extend 8) |T1@8722|)))
(let (($x1288 (= ?x1274 (_ bv46 16))))
(not $x1288))))
(assert
(let ((?x1274 ((_ zero_extend 8) |T1@8722|)))
(let (($x1294 (= ?x1274 (_ bv58 16))))
(not $x1294))))
(assert
(let ((?x4 ((_ zero_extend 24) |T1@8722|)))
(let (($x1298 (= ?x4 (_ bv47 32))))
(not $x1298))))
(assert
(let ((?x4 ((_ zero_extend 24) |T1@8722|)))
(let (($x1304 (= ?x4 (_ bv92 32))))
(not $x1304))))
(assert
(let ((?x4 ((_ zero_extend 24) |T1@8722|)))
(let (($x1308 (= ?x4 (_ bv46 32))))
(not $x1308))))
(assert
(let ((?x1274 ((_ zero_extend 8) |T1@8722|)))
(let (($x1313 (= ?x1274 (_ bv32 16))))
(not $x1313))))
(assert
(let (($x1317 (= |T1@8722| (_ bv0 8))))
(not $x1317)))
(assert
(let ((?x4 ((_ zero_extend 24) |T1@8722|)))
(let ((?x7 ((_ zero_extend 24) |T1@8721|)))
(let ((?x9 ((_ zero_extend 24) |T1@8720|)))
(let ((?x11 ((_ zero_extend 24) |T1@8719|)))
(let ((?x13 ((_ zero_extend 24) |T1@8718|)))
(let ((?x15 ((_ zero_extend 24) |T1@8717|)))
(let ((?x17 ((_ zero_extend 24) |T1@8716|)))
(let ((?x19 ((_ zero_extend 24) |T1@8715|)))
(let ((?x21 ((_ zero_extend 24) |T1@8714|)))
(let ((?x23 ((_ zero_extend 24) |T1@8713|)))
(let ((?x25 ((_ zero_extend 24) |T1@8712|)))
(let ((?x27 ((_ zero_extend 24) |T1@8711|)))
(let ((?x29 ((_ zero_extend 24) |T1@8710|)))
(let ((?x31 ((_ zero_extend 24) |T1@8709|)))
(let ((?x33 ((_ zero_extend 24) |T1@8708|)))
(let ((?x35 ((_ zero_extend 24) |T1@8707|)))
(let ((?x37 ((_ zero_extend 24) |T1@8706|)))
(let ((?x39 ((_ zero_extend 24) |T1@8705|)))
(let ((?x41 ((_ zero_extend 24) |T1@8704|)))
(let ((?x42 (bvmul ?x41 (_ bv65599 32))))
(let ((?x43 (bvadd ?x42 ?x39)))
(let ((?x44 (bvmul ?x43 (_ bv65599 32))))
(let ((?x45 (bvadd ?x44 ?x37)))
(let ((?x46 (bvmul ?x45 (_ bv65599 32))))
(let ((?x47 (bvadd ?x46 ?x35)))
(let ((?x48 (bvmul ?x47 (_ bv65599 32))))
(let ((?x49 (bvadd ?x48 ?x33)))
(let ((?x50 (bvmul ?x49 (_ bv65599 32))))
(let ((?x51 (bvadd ?x50 ?x31)))
(let ((?x52 (bvmul ?x51 (_ bv65599 32))))
(let ((?x53 (bvadd ?x52 ?x29)))
(let ((?x54 (bvmul ?x53 (_ bv65599 32))))
(let ((?x55 (bvadd ?x54 ?x27)))
(let ((?x56 (bvmul ?x55 (_ bv65599 32))))
(let ((?x57 (bvadd ?x56 ?x25)))
(let ((?x58 (bvmul ?x57 (_ bv65599 32))))
(let ((?x59 (bvadd ?x58 ?x23)))
(let ((?x60 (bvmul ?x59 (_ bv65599 32))))
(let ((?x61 (bvadd ?x60 ?x21)))
(let ((?x62 (bvmul ?x61 (_ bv65599 32))))
(let ((?x63 (bvadd ?x62 ?x19)))
(let ((?x64 (bvmul ?x63 (_ bv65599 32))))
(let ((?x65 (bvadd ?x64 ?x17)))
(let ((?x66 (bvmul ?x65 (_ bv65599 32))))
(let ((?x67 (bvadd ?x66 ?x15)))
(let ((?x68 (bvmul ?x67 (_ bv65599 32))))
(let ((?x69 (bvadd ?x68 ?x13)))
(let ((?x70 (bvmul ?x69 (_ bv65599 32))))
(let ((?x71 (bvadd ?x70 ?x11)))
(let ((?x72 (bvmul ?x71 (_ bv65599 32))))
(let ((?x73 (bvadd ?x72 ?x9)))
(let ((?x74 (bvmul ?x73 (_ bv65599 32))))
(let ((?x75 (bvadd ?x74 ?x7)))
(let ((?x76 (bvmul ?x75 (_ bv65599 32))))
(let ((?x77 (bvadd ?x76 ?x4)))
(let (($x1322 (= (_ bv3614852639 32) ?x77)))
(not $x1322))))))))))))))))))))))))))))))))))))))))))))))))))))))))))
(assert
(let ((?x4 ((_ zero_extend 24) |T1@8722|)))
(let ((?x7 ((_ zero_extend 24) |T1@8721|)))
(let ((?x9 ((_ zero_extend 24) |T1@8720|)))
(let ((?x11 ((_ zero_extend 24) |T1@8719|)))
(let ((?x13 ((_ zero_extend 24) |T1@8718|)))
(let ((?x15 ((_ zero_extend 24) |T1@8717|)))
(let ((?x17 ((_ zero_extend 24) |T1@8716|)))
(let ((?x19 ((_ zero_extend 24) |T1@8715|)))
(let ((?x21 ((_ zero_extend 24) |T1@8714|)))
(let ((?x23 ((_ zero_extend 24) |T1@8713|)))
(let ((?x25 ((_ zero_extend 24) |T1@8712|)))
(let ((?x27 ((_ zero_extend 24) |T1@8711|)))
(let ((?x29 ((_ zero_extend 24) |T1@8710|)))
(let ((?x31 ((_ zero_extend 24) |T1@8709|)))
(let ((?x33 ((_ zero_extend 24) |T1@8708|)))
(let ((?x35 ((_ zero_extend 24) |T1@8707|)))
(let ((?x37 ((_ zero_extend 24) |T1@8706|)))
(let ((?x39 ((_ zero_extend 24) |T1@8705|)))
(let ((?x41 ((_ zero_extend 24) |T1@8704|)))
(let ((?x42 (bvmul ?x41 (_ bv65599 32))))
(let ((?x43 (bvadd ?x42 ?x39)))
(let ((?x44 (bvmul ?x43 (_ bv65599 32))))
(let ((?x45 (bvadd ?x44 ?x37)))
(let ((?x46 (bvmul ?x45 (_ bv65599 32))))
(let ((?x47 (bvadd ?x46 ?x35)))
(let ((?x48 (bvmul ?x47 (_ bv65599 32))))
(let ((?x49 (bvadd ?x48 ?x33)))
(let ((?x50 (bvmul ?x49 (_ bv65599 32))))
(let ((?x51 (bvadd ?x50 ?x31)))
(let ((?x52 (bvmul ?x51 (_ bv65599 32))))
(let ((?x53 (bvadd ?x52 ?x29)))
(let ((?x54 (bvmul ?x53 (_ bv65599 32))))
(let ((?x55 (bvadd ?x54 ?x27)))
(let ((?x56 (bvmul ?x55 (_ bv65599 32))))
(let ((?x57 (bvadd ?x56 ?x25)))
(let ((?x58 (bvmul ?x57 (_ bv65599 32))))
(let ((?x59 (bvadd ?x58 ?x23)))
(let ((?x60 (bvmul ?x59 (_ bv65599 32))))
(let ((?x61 (bvadd ?x60 ?x21)))
(let ((?x62 (bvmul ?x61 (_ bv65599 32))))
(let ((?x63 (bvadd ?x62 ?x19)))
(let ((?x64 (bvmul ?x63 (_ bv65599 32))))
(let ((?x65 (bvadd ?x64 ?x17)))
(let ((?x66 (bvmul ?x65 (_ bv65599 32))))
(let ((?x67 (bvadd ?x66 ?x15)))
(let ((?x68 (bvmul ?x67 (_ bv65599 32))))
(let ((?x69 (bvadd ?x68 ?x13)))
(let ((?x70 (bvmul ?x69 (_ bv65599 32))))
(let ((?x71 (bvadd ?x70 ?x11)))
(let ((?x72 (bvmul ?x71 (_ bv65599 32))))
(let ((?x73 (bvadd ?x72 ?x9)))
(let ((?x74 (bvmul ?x73 (_ bv65599 32))))
(let ((?x75 (bvadd ?x74 ?x7)))
(let ((?x76 (bvmul ?x75 (_ bv65599 32))))
(let ((?x77 (bvadd ?x76 ?x4)))
(let (($x1327 (= (_ bv4056202319 32) ?x77)))
(not $x1327))))))))))))))))))))))))))))))))))))))))))))))))))))))))))
(assert
(let ((?x4 ((_ zero_extend 24) |T1@8722|)))
(let ((?x7 ((_ zero_extend 24) |T1@8721|)))
(let ((?x9 ((_ zero_extend 24) |T1@8720|)))
(let ((?x11 ((_ zero_extend 24) |T1@8719|)))
(let ((?x13 ((_ zero_extend 24) |T1@8718|)))
(let ((?x15 ((_ zero_extend 24) |T1@8717|)))
(let ((?x17 ((_ zero_extend 24) |T1@8716|)))
(let ((?x19 ((_ zero_extend 24) |T1@8715|)))
(let ((?x21 ((_ zero_extend 24) |T1@8714|)))
(let ((?x23 ((_ zero_extend 24) |T1@8713|)))
(let ((?x25 ((_ zero_extend 24) |T1@8712|)))
(let ((?x27 ((_ zero_extend 24) |T1@8711|)))
(let ((?x29 ((_ zero_extend 24) |T1@8710|)))
(let ((?x31 ((_ zero_extend 24) |T1@8709|)))
(let ((?x33 ((_ zero_extend 24) |T1@8708|)))
(let ((?x35 ((_ zero_extend 24) |T1@8707|)))
(let ((?x37 ((_ zero_extend 24) |T1@8706|)))
(let ((?x39 ((_ zero_extend 24) |T1@8705|)))
(let ((?x41 ((_ zero_extend 24) |T1@8704|)))
(let ((?x42 (bvmul ?x41 (_ bv65599 32))))
(let ((?x43 (bvadd ?x42 ?x39)))
(let ((?x44 (bvmul ?x43 (_ bv65599 32))))
(let ((?x45 (bvadd ?x44 ?x37)))
(let ((?x46 (bvmul ?x45 (_ bv65599 32))))
(let ((?x47 (bvadd ?x46 ?x35)))
(let ((?x48 (bvmul ?x47 (_ bv65599 32))))
(let ((?x49 (bvadd ?x48 ?x33)))
(let ((?x50 (bvmul ?x49 (_ bv65599 32))))
(let ((?x51 (bvadd ?x50 ?x31)))
(let ((?x52 (bvmul ?x51 (_ bv65599 32))))
(let ((?x53 (bvadd ?x52 ?x29)))
(let ((?x54 (bvmul ?x53 (_ bv65599 32))))
(let ((?x55 (bvadd ?x54 ?x27)))
(let ((?x56 (bvmul ?x55 (_ bv65599 32))))
(let ((?x57 (bvadd ?x56 ?x25)))
(let ((?x58 (bvmul ?x57 (_ bv65599 32))))
(let ((?x59 (bvadd ?x58 ?x23)))
(let ((?x60 (bvmul ?x59 (_ bv65599 32))))
(let ((?x61 (bvadd ?x60 ?x21)))
(let ((?x62 (bvmul ?x61 (_ bv65599 32))))
(let ((?x63 (bvadd ?x62 ?x19)))
(let ((?x64 (bvmul ?x63 (_ bv65599 32))))
(let ((?x65 (bvadd ?x64 ?x17)))
(let ((?x66 (bvmul ?x65 (_ bv65599 32))))
(let ((?x67 (bvadd ?x66 ?x15)))
(let ((?x68 (bvmul ?x67 (_ bv65599 32))))
(let ((?x69 (bvadd ?x68 ?x13)))
(let ((?x70 (bvmul ?x69 (_ bv65599 32))))
(let ((?x71 (bvadd ?x70 ?x11)))
(let ((?x72 (bvmul ?x71 (_ bv65599 32))))
(let ((?x73 (bvadd ?x72 ?x9)))
(let ((?x74 (bvmul ?x73 (_ bv65599 32))))
(let ((?x75 (bvadd ?x74 ?x7)))
(let ((?x76 (bvmul ?x75 (_ bv65599 32))))
(let ((?x77 (bvadd ?x76 ?x4)))
(let (($x1332 (= (_ bv1822408940 32) ?x77)))
(not $x1332))))))))))))))))))))))))))))))))))))))))))))))))))))))))))
(assert
true)
(check-sat)
(exit)
